p edge 60 372
e 1 4
e 1 6
e 1 7
e 1 9
e 1 12
e 1 14
e 1 20
e 1 24
e 1 28
e 1 29
e 1 41
e 1 46
e 1 52
e 1 54
e 1 58
e 2 6
e 2 8
e 2 10
e 2 22
e 2 23
e 2 26
e 2 30
e 2 31
e 2 34
e 2 46
e 3 8
e 3 12
e 3 21
e 3 29
e 3 32
e 3 43
e 3 56
e 4 6
e 4 7
e 4 10
e 4 20
e 4 23
e 4 30
e 4 34
e 4 38
e 4 39
e 4 48
e 4 49
e 5 7
e 5 17
e 5 18
e 5 19
e 5 25
e 5 37
e 5 38
e 5 39
e 5 42
e 5 43
e 5 44
e 5 48
e 5 49
e 5 51
e 6 7
e 6 8
e 6 14
e 6 19
e 6 21
e 6 27
e 6 35
e 6 45
e 6 46
e 6 55
e 7 19
e 7 22
e 7 23
e 7 25
e 7 36
e 7 60
e 8 11
e 8 31
e 8 33
e 8 36
e 8 44
e 8 45
e 8 47
e 8 48
e 8 52
e 8 55
e 8 56
e 9 12
e 9 13
e 9 15
e 9 16
e 9 30
e 9 34
e 9 49
e 9 54
e 9 59
e 10 11
e 10 14
e 10 19
e 10 30
e 10 35
e 10 49
e 10 52
e 10 56
e 10 59
e 11 22
e 11 26
e 11 28
e 11 36
e 11 38
e 11 39
e 11 43
e 11 54
e 11 60
e 12 16
e 12 18
e 12 24
e 12 27
e 12 31
e 12 36
e 12 40
e 12 41
e 12 53
e 12 54
e 12 58
e 13 19
e 13 21
e 13 23
e 13 26
e 13 30
e 13 33
e 13 40
e 13 43
e 13 46
e 13 50
e 13 53
e 13 56
e 13 57
e 13 58
e 14 16
e 14 17
e 14 24
e 14 27
e 14 30
e 14 35
e 14 38
e 14 40
e 14 43
e 14 44
e 14 49
e 14 54
e 15 18
e 15 23
e 15 34
e 15 35
e 15 37
e 15 41
e 15 43
e 15 47
e 15 48
e 16 29
e 16 30
e 16 32
e 16 34
e 16 35
e 16 40
e 16 52
e 16 55
e 16 56
e 16 57
e 17 27
e 17 29
e 17 31
e 17 39
e 17 42
e 17 52
e 17 59
e 18 26
e 18 27
e 18 37
e 18 38
e 18 42
e 18 44
e 18 54
e 18 56
e 18 60
e 19 30
e 19 38
e 19 39
e 19 43
e 19 53
e 19 56
e 20 31
e 20 32
e 20 35
e 20 37
e 20 45
e 20 49
e 20 59
e 21 22
e 21 24
e 21 28
e 21 30
e 21 32
e 21 43
e 21 45
e 21 48
e 21 50
e 21 53
e 22 24
e 22 26
e 22 28
e 22 30
e 22 32
e 22 36
e 22 42
e 22 44
e 22 47
e 22 51
e 22 52
e 22 54
e 23 24
e 23 27
e 23 31
e 23 32
e 23 33
e 23 34
e 23 36
e 23 40
e 23 41
e 23 51
e 23 52
e 23 53
e 23 55
e 24 26
e 24 33
e 24 35
e 24 41
e 24 51
e 24 53
e 24 56
e 24 58
e 24 59
e 25 30
e 25 38
e 25 45
e 25 46
e 25 53
e 25 55
e 25 59
e 26 28
e 26 33
e 26 38
e 26 40
e 26 44
e 26 45
e 26 59
e 27 28
e 27 30
e 27 31
e 27 35
e 27 48
e 27 50
e 27 54
e 27 59
e 28 33
e 28 34
e 28 40
e 28 54
e 28 55
e 29 32
e 29 36
e 29 38
e 29 41
e 29 46
e 29 52
e 29 57
e 30 36
e 30 43
e 30 46
e 30 49
e 30 53
e 30 54
e 31 34
e 31 35
e 31 49
e 31 50
e 31 51
e 32 36
e 32 40
e 32 43
e 33 41
e 33 48
e 33 50
e 33 53
e 33 55
e 34 36
e 34 45
e 34 49
e 34 52
e 35 41
e 35 52
e 35 54
e 35 57
e 36 40
e 36 43
e 37 47
e 37 52
e 37 56
e 37 57
e 37 60
e 38 41
e 38 44
e 38 46
e 38 50
e 38 52
e 39 43
e 39 44
e 39 48
e 39 50
e 39 51
e 39 55
e 39 59
e 40 41
e 40 42
e 40 45
e 40 47
e 40 48
e 40 49
e 40 59
e 41 46
e 41 47
e 41 53
e 42 50
e 42 51
e 42 52
e 43 46
e 43 52
e 43 53
e 43 58
e 43 60
e 44 50
e 44 53
e 44 54
e 45 55
e 45 57
e 45 59
e 46 50
e 46 53
e 46 54
e 46 55
e 46 57
e 46 58
e 47 48
e 47 51
e 47 52
e 47 56
e 48 49
e 48 59
e 49 51
e 49 58
e 50 52
e 50 54
e 50 57
e 50 59
e 51 59
e 52 54
e 52 59
e 53 54
e 53 57
e 53 59
e 53 60
e 55 60
e 56 58
e 58 59
